c This graph is produced by Sof A. Lee
c Experiment on graph colouring using phase coupled oscillators
c Date: 17/02/2008 11:23:56 PM
p edge 10 19
e 1 5
e 1 9
e 1 4
e 2 10
e 2 7
e 2 4
e 2 3
e 3 10
e 3 5
e 3 6
e 3 4
e 3 8
e 4 7
e 4 5
e 4 9
e 5 6
e 6 8
e 7 9
e 8 10
